p cnf 34 38
-1 -2 31 0 
-3 15 18 24 -2 31 0 
-3 15 18 24 31 0 
-4 31 0 
-3 15 18 24 -5 7 31 0 
-1 -6 31 0 
-7 5 32 0 
-8 -9 31 0 
-10 31 0 
-1 31 0 
-11 -12 31 0 
-13 -10 31 0 
-13 -12 31 0 
-11 -10 31 0 
-13 -9 31 0 
-14 29 31 0 
-15 3 18 24 32 0 
-16 17 31 0 
-17 16 31 0 
-18 3 15 24 31 0 
-19 32 0 
-19 33 0 
-20 34 0 
-21 33 0 
-21 32 0 
-13 -22 31 0 
-13 -23 31 0 
-8 -24 3 15 18 31 0 
-11 -9 31 0 
-11 -23 31 0 
-8 -25 31 0 
-13 -26 31 0 
-22 31 0 
-23 31 0 
-9 31 0 
-27 31 0 
-28 31 0 
-29 14 -30 31 0 
